% Instancia problemática tipo: INFACTIBLE_DEMANDA
% Razón: Demanda (267204.0) excede capacidad física máxima teórica
% Demanda total: 267204.0
% Suministro total: 26720.4
% Factor holgura: 0.1

nP = 2;
nT = 3;
nC1 = 4;
nC2 = 6;
nA = 42;
nD = 3;

arc_from = [1, 1, 1, 2, 2, 2, 3, 3, 3, 3, 4, 4, 4, 4, 5, 5, 5, 5, 6, 6, 6, 6, 6, 6, 7, 7, 7, 7, 7, 7, 8, 8, 8, 8, 8, 8, 9, 9, 9, 9, 9, 9];
arc_to = [3, 4, 5, 3, 4, 5, 6, 7, 8, 9, 6, 7, 8, 9, 6, 7, 8, 9, 10, 11, 12, 13, 14, 15, 10, 11, 12, 13, 14, 15, 10, 11, 12, 13, 14, 15, 10, 11, 12, 13, 14, 15];

supply = [13360.20, 13360.20, 0, 0, 0, 0, 0, 0, 0, 0, 0, 0, 0, 0, 0];
demand = [0, 0, 0, 0, 0, 26720.40, 26720.40, 26720.40, 26720.40, 26720.40, 26720.40, 26720.40, 26720.40, 26720.40, 26720.40];

max_capacity = [795, 1414, 3181];

install_cost = array2d(1..nA, 1..nD, [
  20, 24, 32,
  50, 62, 78,
  20, 24, 32,
  50, 62, 78,
  20, 24, 32,
  50, 62, 78,
  20, 24, 32,
  50, 62, 78,
  20, 24, 32,
  50, 62, 78,
  20, 24, 32,
  50, 62, 78,
  20, 24, 32,
  50, 62, 78,
  20, 24, 32,
  50, 62, 78,
  20, 24, 32,
  50, 62, 78,
  20, 24, 32,
  50, 62, 78,
  20, 24, 32,
  50, 62, 78,
  20, 24, 32,
  50, 62, 78,
  20, 24, 32,
  50, 62, 78,
  20, 24, 32,
  50, 62, 78,
  20, 24, 32,
  50, 62, 78,
  20, 24, 32,
  50, 62, 78,
  20, 24, 32,
  50, 62, 78,
  20, 24, 32,
  50, 62, 78,
  20, 24, 32,
  50, 62, 78,
  20, 24, 32,
  50, 62, 78,
  20, 24, 32,
  50, 62, 78
]);

trans_cost = [9.49, 7.59, 9.94, 12.57, 7.30, 7.30, 12.74, 10.30, 6.59, 9.63, 6.61, 6.60, 8.73, 2.26, 2.83, 6.31, 4.96, 8.94, 5.28, 3.76, 12.40, 7.32, 8.20, 3.73, 6.37, 8.33, 4.55, 9.13, 6.20, 7.12, 6.19, 13.56, 7.96, 4.83, 10.47, 4.34, 8.63, 2.12, 4.02, 8.59, 10.22, 8.51];
